p tw 44 47
1 2
2 13
3 38
4 5
5 6
6 7
7 8
8 9
8 11
9 10
10 38
11 12
12 14
13 24
14 15
15 16
16 17
16 19
17 18
18 38
19 20
20 21
21 22
22 23
23 25
24 35
25 26
26 27
27 28
28 29
29 30
30 31
31 32
32 33
33 34
33 36
34 38
35 40
36 37
37 38
38 39
40 41
41 42
42 43
43 44
44 3
44 4
